 C  H                                   
   1.00000000000000     
    35.3376999999999981    0.0000000000000000    0.0000000000000000
    28.5887998421235778   20.7709789099357280    0.0000000000000000
     0.0000000000000000    0.0000000000000000   10.0000000000000000
   C    H 
   148    48
Direct
  0.2887925720519515  0.9895729050767417  0.5000000000000000
  0.3551787813193593  0.9889211083960805  0.5000000000000000
  0.2884812839283905  0.0302842194433529  0.5000000000000000
  0.2293404905136018  0.0971056421749623  0.5000000000000000
  0.1733033256647506  0.1206921942477221  0.5000000000000000
  0.1729250196822354  0.0799080868567184  0.5000000000000000
  0.2332158355315727  0.0110029555310843  0.5000000000000000
  0.1067140178380516  0.1872872186028516  0.5000000000000000
  0.0659173357113864  0.1869264126725397  0.5000000000000000
  0.1073369375374394  0.1213395370466439  0.5000000000000000
  0.0831370213563515  0.2433217022044391  0.5000000000000000
  0.0163166058310123  0.3024933841018192  0.5000000000000000
  0.4919087896205775  0.9500535559272539  0.5000000000000000
  0.4500879189358690  0.9510539212435805  0.5000000000000000
  0.3828784961973801  0.0025834925780926  0.5000000000000000
  0.5324705662073287  0.9802396119366501  0.5000000000000000
  0.4796478245043795  0.9987672698165038  0.5000000000000000
  0.5990134421589740  0.9800269756071414  0.5000000000000000
  0.5323119731271241  0.0213178862735456  0.5000000000000000
  0.6126469751446063  0.0088837036284901  0.5000000000000000
  0.5568766270520586  0.0776458417008065  0.5000000000000000
  0.4915098025484225  0.1174147506228791  0.5000000000000000
  0.4796241609031880  0.0879681912393401  0.5000000000000000
  0.5570117576570421  0.1179344472202963  0.5000000000000000
  0.4899101175970609  0.1847601213570897  0.5000000000000000
  0.4495810653318924  0.1837437973885091  0.5000000000000000
  0.4614598013795682  0.2434932417707490  0.5000000000000000
  0.3934957773186448  0.3011681305873708  0.5000000000000000
  0.3532016212994695  0.3000291327801572  0.5000000000000000
  0.3817415253769393  0.2413191300459275  0.5000000000000000
  0.3525969324901787  0.3664142546700808  0.5000000000000000
  0.2873393498331009  0.4073449659206741  0.5000000000000000
  0.2861605743298786  0.3670816100532262  0.5000000000000000
  0.2296711395415939  0.4753142496430219  0.5000000000000000
  0.1709151407466941  0.5038002484000653  0.5000000000000000
  0.1698716538530172  0.4634928430182109  0.5000000000000000
  0.2274364590854163  0.3956518931330849  0.5000000000000000
  0.1040806953567788  0.5709190594735324  0.5000000000000000
  0.0638110304600315  0.5707655812381559  0.5000000000000000
  0.1035570675482395  0.5054049871505377  0.5000000000000000
  0.9950652966251056  0.6265076831237680  0.5000000000000000
  0.0074597838574027  0.5461953600287536  0.5000000000000000
  0.0741150788137480  0.4935135980469710  0.5000000000000000
  0.8273072006244176  0.9516338946605299  0.5000000000000000
  0.7615087457490883  0.9992661834083127  0.5000000000000000
  0.7385412031418994  0.9807989363965911  0.5000000000000000
  0.6724494333961956  0.0216048031419918  0.5000000000000000
  0.6733267266815365  0.9797363986949008  0.5000000000000000
  0.6164202666051612  0.0887147598511753  0.5000000000000000
  0.0748503248410353  0.6303336819558240  0.5000000000000000
  0.0077339894024187  0.6863515392311528  0.5000000000000000
  0.0185560715334527  0.9223007764797955  0.5000000000000000
  0.0843434435516855  0.8746730282076635  0.5000000000000000
  0.1073130109335751  0.8931376552284654  0.5000000000000000
  0.0652849639989573  0.9597007689906207  0.5000000000000000
  0.1734030918398781  0.8522972342718748  0.5000000000000000
  0.1725689929226887  0.8941273420031016  0.5000000000000000
  0.1069349518420951  0.9585509575430531  0.5000000000000000
  0.2293941645471166  0.7851816109365624  0.5000000000000000
  0.2888224872442989  0.7559234695171609  0.5000000000000000
  0.2889815237822670  0.7961911512558396  0.5000000000000000
  0.2332568582611554  0.8649438285542793  0.5000000000000000
  0.3559483813185481  0.6890820856870238  0.5000000000000000
  0.3962588114482446  0.6901168784432299  0.5000000000000000
  0.3543422441846314  0.7564374120924956  0.5000000000000000
  0.3844186838609552  0.6303387316968077  0.5000000000000000
  0.4524039588621566  0.5726617288869013  0.5000000000000000
  0.4926768721482599  0.5738270099630842  0.5000000000000000
  0.4640970490886598  0.6325581413733367  0.5000000000000000
  0.4933604198490912  0.5073888969386307  0.5000000000000000
  0.5586135169891150  0.4664840945930738  0.5000000000000000
  0.5597540571138070  0.5067741137688916  0.5000000000000000
  0.6163049724726946  0.3985075169256144  0.5000000000000000
  0.6750351076924167  0.3700677087318914  0.5000000000000000
  0.6760402648081251  0.4104023289249971  0.5000000000000000
  0.6184599187287755  0.4782461517109796  0.5000000000000000
  0.7418695642812096  0.3029603276332661  0.5000000000000000
  0.7821442934870899  0.3031061013849595  0.5000000000000000
  0.7423700909490550  0.3684843613076821  0.5000000000000000
  0.7711080295568696  0.2435455868348413  0.5000000000000000
  0.8382177126632318  0.1875350415289930  0.5000000000000000
  0.8800588679905653  0.1866764500022697  0.5000000000000000
  0.8508979311038016  0.2473592593167516  0.5000000000000000
  0.8790470472824933  0.1214387123527121  0.5000000000000000
  0.9456248326513024  0.0793915226763682  0.5000000000000000
  0.9444892969928976  0.1210273078769930  0.5000000000000000
  0.8605833277656785  0.0984708678894957  0.5000000000000000
  0.9082017005574536  0.0326779007527646  0.5000000000000000
  0.9962866310857317  0.0103879928224504  0.5000000000000000
  0.3539350197298120  0.9238017996140677  0.5000000000000000
  0.3957352927949180  0.9228182727535499  0.5000000000000000
  0.2469509345236931  0.9599322814431895  0.5000000000000000
  0.3134182811205845  0.8935904442735573  0.5000000000000000
  0.3662320679224790  0.8750659962865922  0.5000000000000000
  0.2078681213826975  0.9583624304628831  0.5000000000000000
  0.2469017272679220  0.8937791224523653  0.5000000000000000
  0.3135912181040507  0.8525057323033676  0.5000000000000000
  0.3662455858885924  0.7858666364233055  0.5000000000000000
  0.8797265003007705  0.2610106742124269  0.5000000000000000
  0.8384587621039947  0.3276969920049674  0.5000000000000000
  0.7718017317362288  0.3803839270312023  0.5000000000000000
  0.9443176045472780  0.2219600272799161  0.5000000000000000
  0.9459112031363034  0.2610228563453979  0.5000000000000000
  0.8795649652094771  0.3275026412781850  0.5000000000000000
  0.9970155557847638  0.2472488674260189  0.5000000000000000
  0.9755885306615747  0.3028199609906133  0.5000000000000000
  0.9098233018412623  0.3679666618401702  0.5000000000000000
  0.8610614679851019  0.3802966951675675  0.5000000000000000
  0.9749811088434630  0.3691852081966418  0.5000000000000000
  0.9088569931576166  0.4097535062808406  0.5000000000000000
  0.9886550242734399  0.3968739279361512  0.5000000000000000
  0.9371206358934308  0.4640785136797375  0.5000000000000000
  0.8710031678767580  0.5046418145098049  0.5000000000000000
  0.8573292235285793  0.4769538170876309  0.5000000000000000
  0.9361330973857632  0.5058805038628873  0.5000000000000000
  0.8703592895396791  0.5710306217702263  0.5000000000000000
  0.8296548957969505  0.5713280106081589  0.5000000000000000
  0.8489118725902010  0.6266187762347171  0.5000000000000000
  0.7799921474138325  0.6869184882311888  0.5000000000000000
  0.7392089845800857  0.6865303685390571  0.5000000000000000
  0.7628294261756237  0.6304745638317071  0.5000000000000000
  0.7385453033289974  0.7525125167562727  0.5000000000000000
  0.6729540536100590  0.7939223653930416  0.5000000000000000
  0.6725971723355096  0.7531243301353727  0.5000000000000000
  0.6126461332001168  0.8628307220407273  0.5000000000000000
  0.5570596406898715  0.8842729256645968  0.5000000000000000
  0.5573660349814400  0.8435611290740747  0.5000000000000000
  0.6165426977411376  0.7767273917648043  0.5000000000000000
  0.4906555222723663  0.8849314020210162  0.5000000000000000
  0.4629430691332673  0.8712849319301302  0.5000000000000000
  0.9662033257226736  0.6128779615569081  0.5000000000000000
  0.9016046202829592  0.6519300204259927  0.5000000000000000
  0.9000069987392343  0.6128673072655538  0.5000000000000000
  0.9663564394825982  0.5463903283430647  0.5000000000000000
  0.9848686973441672  0.4935882827550922  0.5000000000000000
  0.5989328765841343  0.9138944625812134  0.5000000000000000
  0.6380363240398189  0.9154420490832427  0.5000000000000000
  0.9659002063161674  0.6871922140258406  0.5000000000000000
  0.9668935936697662  0.7524594986300240  0.5000000000000000
  0.9003129378357353  0.7945124313492715  0.5000000000000000
  0.9014770022511315  0.7528578647291636  0.5000000000000000
  0.9853444763157305  0.7754413918632328  0.5000000000000000
  0.9377092832050192  0.8412416411691239  0.5000000000000000
  0.8714152284928767  0.8853284785162973  0.5000000000000000
  0.8496141412358539  0.8635261371294092  0.5000000000000000
  0.7806088536448832  0.9142123237619471  0.5000000000000000
  0.7389860418080236  0.9153285593843156  0.5000000000000000
  0.9744882328757181  0.9885849156209766  0.5000000000000000
  0.8470271583487682  0.9643187538151728  0.5000000000000000
  0.8954783101591520  0.0129950569187649  0.5000000000000000
  0.9503994060104699  0.8609555867147844  0.5000000000000000
  0.9987961028578275  0.9096623274884644  0.5000000000000000
  0.1555387120692352  0.0006303561760241  0.5000000000000000
  0.0911638648036502  0.1051774690934529  0.5000000000000000
  0.9865850423967071  0.1696264086547751  0.5000000000000000
  0.9870335264511004  0.1045053461196610  0.5000000000000000
  0.0904243528736537  0.0010832814761738  0.5000000000000000
  0.1161307026091445  0.2406891123547268  0.5000000000000000
  0.0382983015835725  0.3668950670525544  0.5000000000000000
  0.0356827651778476  0.4445760549845257  0.5000000000000000
  0.1025046958017429  0.4445537986069714  0.5000000000000000
  0.2254771401966286  0.3663409507516703  0.5000000000000000
  0.3524279330089513  0.2393697969730519  0.5000000000000000
  0.4306678161660381  0.1163449262421958  0.5000000000000000
  0.4306445594006578  0.0495820476628693  0.5000000000000000
  0.3529114810195347  0.0522198986655192  0.5000000000000000
  0.2267330189613233  0.1300798243601647  0.5000000000000000
  0.4152122776670165  0.7574649947100582  0.5000000000000000
  0.4152378637836161  0.8242536418525824  0.5000000000000000
  0.4934066014081996  0.6345164180828347  0.5000000000000000
  0.6203870895383659  0.5075845768140150  0.5000000000000000
  0.7434034137400890  0.4293529924985142  0.5000000000000000
  0.8102558688661634  0.4293207530177107  0.5000000000000000
  0.8076871511351335  0.5069351155637479  0.5000000000000000
  0.7298677892461009  0.6330702804569152  0.5000000000000000
  0.6191571074214022  0.7437487085165992  0.5000000000000000
  0.4929054186735012  0.8216498006630494  0.5000000000000000
  0.6903671677366872  0.8731615933069218  0.5000000000000000
  0.7546895826866341  0.7687058686510326  0.5000000000000000
  0.8593419442272080  0.7042664191604012  0.5000000000000000
  0.8589269266700725  0.7693880637408522  0.5000000000000000
  0.0360667525315202  0.7424209477400729  0.5000000000000000
  0.1173458326366970  0.8239593821181224  0.5000000000000000
  0.2265231927180209  0.7566404326604949  0.5000000000000000
  0.3552096211333836  0.6282612401838952  0.5000000000000000
  0.4771788155257565  0.4911545687490593  0.5000000000000000
  0.6142708413524991  0.3692675006166041  0.5000000000000000
  0.7425549889227900  0.2406854447573316  0.5000000000000000
  0.8098557112795457  0.1315154031772448  0.5000000000000000
  0.7284910044303448  0.0499844595228130  0.5000000000000000
  0.6192615962774595  0.1172817694390433  0.5000000000000000
  0.4907088185689216  0.2455189646683422  0.5000000000000000
  0.3688237089402438  0.3826040495554128  0.5000000000000000
  0.2317377161374991  0.5045283232386328  0.5000000000000000
  0.1034173091218075  0.6331756732289737  0.5000000000000000
  0.7555416437913857  0.8727656714435943  0.5000000000000000
 
  0.00000000E+00  0.00000000E+00  0.00000000E+00
  0.00000000E+00  0.00000000E+00  0.00000000E+00
  0.00000000E+00  0.00000000E+00  0.00000000E+00
  0.00000000E+00  0.00000000E+00  0.00000000E+00
  0.00000000E+00  0.00000000E+00  0.00000000E+00
  0.00000000E+00  0.00000000E+00  0.00000000E+00
  0.00000000E+00  0.00000000E+00  0.00000000E+00
  0.00000000E+00  0.00000000E+00  0.00000000E+00
  0.00000000E+00  0.00000000E+00  0.00000000E+00
  0.00000000E+00  0.00000000E+00  0.00000000E+00
  0.00000000E+00  0.00000000E+00  0.00000000E+00
  0.00000000E+00  0.00000000E+00  0.00000000E+00
  0.00000000E+00  0.00000000E+00  0.00000000E+00
  0.00000000E+00  0.00000000E+00  0.00000000E+00
  0.00000000E+00  0.00000000E+00  0.00000000E+00
  0.00000000E+00  0.00000000E+00  0.00000000E+00
  0.00000000E+00  0.00000000E+00  0.00000000E+00
  0.00000000E+00  0.00000000E+00  0.00000000E+00
  0.00000000E+00  0.00000000E+00  0.00000000E+00
  0.00000000E+00  0.00000000E+00  0.00000000E+00
  0.00000000E+00  0.00000000E+00  0.00000000E+00
  0.00000000E+00  0.00000000E+00  0.00000000E+00
  0.00000000E+00  0.00000000E+00  0.00000000E+00
  0.00000000E+00  0.00000000E+00  0.00000000E+00
  0.00000000E+00  0.00000000E+00  0.00000000E+00
  0.00000000E+00  0.00000000E+00  0.00000000E+00
  0.00000000E+00  0.00000000E+00  0.00000000E+00
  0.00000000E+00  0.00000000E+00  0.00000000E+00
  0.00000000E+00  0.00000000E+00  0.00000000E+00
  0.00000000E+00  0.00000000E+00  0.00000000E+00
  0.00000000E+00  0.00000000E+00  0.00000000E+00
  0.00000000E+00  0.00000000E+00  0.00000000E+00
  0.00000000E+00  0.00000000E+00  0.00000000E+00
  0.00000000E+00  0.00000000E+00  0.00000000E+00
  0.00000000E+00  0.00000000E+00  0.00000000E+00
  0.00000000E+00  0.00000000E+00  0.00000000E+00
  0.00000000E+00  0.00000000E+00  0.00000000E+00
  0.00000000E+00  0.00000000E+00  0.00000000E+00
  0.00000000E+00  0.00000000E+00  0.00000000E+00
  0.00000000E+00  0.00000000E+00  0.00000000E+00
  0.00000000E+00  0.00000000E+00  0.00000000E+00
  0.00000000E+00  0.00000000E+00  0.00000000E+00
  0.00000000E+00  0.00000000E+00  0.00000000E+00
  0.00000000E+00  0.00000000E+00  0.00000000E+00
  0.00000000E+00  0.00000000E+00  0.00000000E+00
  0.00000000E+00  0.00000000E+00  0.00000000E+00
  0.00000000E+00  0.00000000E+00  0.00000000E+00
  0.00000000E+00  0.00000000E+00  0.00000000E+00
  0.00000000E+00  0.00000000E+00  0.00000000E+00
  0.00000000E+00  0.00000000E+00  0.00000000E+00
  0.00000000E+00  0.00000000E+00  0.00000000E+00
  0.00000000E+00  0.00000000E+00  0.00000000E+00
  0.00000000E+00  0.00000000E+00  0.00000000E+00
  0.00000000E+00  0.00000000E+00  0.00000000E+00
  0.00000000E+00  0.00000000E+00  0.00000000E+00
  0.00000000E+00  0.00000000E+00  0.00000000E+00
  0.00000000E+00  0.00000000E+00  0.00000000E+00
  0.00000000E+00  0.00000000E+00  0.00000000E+00
  0.00000000E+00  0.00000000E+00  0.00000000E+00
  0.00000000E+00  0.00000000E+00  0.00000000E+00
  0.00000000E+00  0.00000000E+00  0.00000000E+00
  0.00000000E+00  0.00000000E+00  0.00000000E+00
  0.00000000E+00  0.00000000E+00  0.00000000E+00
  0.00000000E+00  0.00000000E+00  0.00000000E+00
  0.00000000E+00  0.00000000E+00  0.00000000E+00
  0.00000000E+00  0.00000000E+00  0.00000000E+00
  0.00000000E+00  0.00000000E+00  0.00000000E+00
  0.00000000E+00  0.00000000E+00  0.00000000E+00
  0.00000000E+00  0.00000000E+00  0.00000000E+00
  0.00000000E+00  0.00000000E+00  0.00000000E+00
  0.00000000E+00  0.00000000E+00  0.00000000E+00
  0.00000000E+00  0.00000000E+00  0.00000000E+00
  0.00000000E+00  0.00000000E+00  0.00000000E+00
  0.00000000E+00  0.00000000E+00  0.00000000E+00
  0.00000000E+00  0.00000000E+00  0.00000000E+00
  0.00000000E+00  0.00000000E+00  0.00000000E+00
  0.00000000E+00  0.00000000E+00  0.00000000E+00
  0.00000000E+00  0.00000000E+00  0.00000000E+00
  0.00000000E+00  0.00000000E+00  0.00000000E+00
  0.00000000E+00  0.00000000E+00  0.00000000E+00
  0.00000000E+00  0.00000000E+00  0.00000000E+00
  0.00000000E+00  0.00000000E+00  0.00000000E+00
  0.00000000E+00  0.00000000E+00  0.00000000E+00
  0.00000000E+00  0.00000000E+00  0.00000000E+00
  0.00000000E+00  0.00000000E+00  0.00000000E+00
  0.00000000E+00  0.00000000E+00  0.00000000E+00
  0.00000000E+00  0.00000000E+00  0.00000000E+00
  0.00000000E+00  0.00000000E+00  0.00000000E+00
  0.00000000E+00  0.00000000E+00  0.00000000E+00
  0.00000000E+00  0.00000000E+00  0.00000000E+00
  0.00000000E+00  0.00000000E+00  0.00000000E+00
  0.00000000E+00  0.00000000E+00  0.00000000E+00
  0.00000000E+00  0.00000000E+00  0.00000000E+00
  0.00000000E+00  0.00000000E+00  0.00000000E+00
  0.00000000E+00  0.00000000E+00  0.00000000E+00
  0.00000000E+00  0.00000000E+00  0.00000000E+00
  0.00000000E+00  0.00000000E+00  0.00000000E+00
  0.00000000E+00  0.00000000E+00  0.00000000E+00
  0.00000000E+00  0.00000000E+00  0.00000000E+00
  0.00000000E+00  0.00000000E+00  0.00000000E+00
  0.00000000E+00  0.00000000E+00  0.00000000E+00
  0.00000000E+00  0.00000000E+00  0.00000000E+00
  0.00000000E+00  0.00000000E+00  0.00000000E+00
  0.00000000E+00  0.00000000E+00  0.00000000E+00
  0.00000000E+00  0.00000000E+00  0.00000000E+00
  0.00000000E+00  0.00000000E+00  0.00000000E+00
  0.00000000E+00  0.00000000E+00  0.00000000E+00
  0.00000000E+00  0.00000000E+00  0.00000000E+00
  0.00000000E+00  0.00000000E+00  0.00000000E+00
  0.00000000E+00  0.00000000E+00  0.00000000E+00
  0.00000000E+00  0.00000000E+00  0.00000000E+00
  0.00000000E+00  0.00000000E+00  0.00000000E+00
  0.00000000E+00  0.00000000E+00  0.00000000E+00
  0.00000000E+00  0.00000000E+00  0.00000000E+00
  0.00000000E+00  0.00000000E+00  0.00000000E+00
  0.00000000E+00  0.00000000E+00  0.00000000E+00
  0.00000000E+00  0.00000000E+00  0.00000000E+00
  0.00000000E+00  0.00000000E+00  0.00000000E+00
  0.00000000E+00  0.00000000E+00  0.00000000E+00
  0.00000000E+00  0.00000000E+00  0.00000000E+00
  0.00000000E+00  0.00000000E+00  0.00000000E+00
  0.00000000E+00  0.00000000E+00  0.00000000E+00
  0.00000000E+00  0.00000000E+00  0.00000000E+00
  0.00000000E+00  0.00000000E+00  0.00000000E+00
  0.00000000E+00  0.00000000E+00  0.00000000E+00
  0.00000000E+00  0.00000000E+00  0.00000000E+00
  0.00000000E+00  0.00000000E+00  0.00000000E+00
  0.00000000E+00  0.00000000E+00  0.00000000E+00
  0.00000000E+00  0.00000000E+00  0.00000000E+00
  0.00000000E+00  0.00000000E+00  0.00000000E+00
  0.00000000E+00  0.00000000E+00  0.00000000E+00
  0.00000000E+00  0.00000000E+00  0.00000000E+00
  0.00000000E+00  0.00000000E+00  0.00000000E+00
  0.00000000E+00  0.00000000E+00  0.00000000E+00
  0.00000000E+00  0.00000000E+00  0.00000000E+00
  0.00000000E+00  0.00000000E+00  0.00000000E+00
  0.00000000E+00  0.00000000E+00  0.00000000E+00
  0.00000000E+00  0.00000000E+00  0.00000000E+00
  0.00000000E+00  0.00000000E+00  0.00000000E+00
  0.00000000E+00  0.00000000E+00  0.00000000E+00
  0.00000000E+00  0.00000000E+00  0.00000000E+00
  0.00000000E+00  0.00000000E+00  0.00000000E+00
  0.00000000E+00  0.00000000E+00  0.00000000E+00
  0.00000000E+00  0.00000000E+00  0.00000000E+00
  0.00000000E+00  0.00000000E+00  0.00000000E+00
  0.00000000E+00  0.00000000E+00  0.00000000E+00
  0.00000000E+00  0.00000000E+00  0.00000000E+00
  0.00000000E+00  0.00000000E+00  0.00000000E+00
  0.00000000E+00  0.00000000E+00  0.00000000E+00
  0.00000000E+00  0.00000000E+00  0.00000000E+00
  0.00000000E+00  0.00000000E+00  0.00000000E+00
  0.00000000E+00  0.00000000E+00  0.00000000E+00
  0.00000000E+00  0.00000000E+00  0.00000000E+00
  0.00000000E+00  0.00000000E+00  0.00000000E+00
  0.00000000E+00  0.00000000E+00  0.00000000E+00
  0.00000000E+00  0.00000000E+00  0.00000000E+00
  0.00000000E+00  0.00000000E+00  0.00000000E+00
  0.00000000E+00  0.00000000E+00  0.00000000E+00
  0.00000000E+00  0.00000000E+00  0.00000000E+00
  0.00000000E+00  0.00000000E+00  0.00000000E+00
  0.00000000E+00  0.00000000E+00  0.00000000E+00
  0.00000000E+00  0.00000000E+00  0.00000000E+00
  0.00000000E+00  0.00000000E+00  0.00000000E+00
  0.00000000E+00  0.00000000E+00  0.00000000E+00
  0.00000000E+00  0.00000000E+00  0.00000000E+00
  0.00000000E+00  0.00000000E+00  0.00000000E+00
  0.00000000E+00  0.00000000E+00  0.00000000E+00
  0.00000000E+00  0.00000000E+00  0.00000000E+00
  0.00000000E+00  0.00000000E+00  0.00000000E+00
  0.00000000E+00  0.00000000E+00  0.00000000E+00
  0.00000000E+00  0.00000000E+00  0.00000000E+00
  0.00000000E+00  0.00000000E+00  0.00000000E+00
  0.00000000E+00  0.00000000E+00  0.00000000E+00
  0.00000000E+00  0.00000000E+00  0.00000000E+00
  0.00000000E+00  0.00000000E+00  0.00000000E+00
  0.00000000E+00  0.00000000E+00  0.00000000E+00
  0.00000000E+00  0.00000000E+00  0.00000000E+00
  0.00000000E+00  0.00000000E+00  0.00000000E+00
  0.00000000E+00  0.00000000E+00  0.00000000E+00
  0.00000000E+00  0.00000000E+00  0.00000000E+00
  0.00000000E+00  0.00000000E+00  0.00000000E+00
  0.00000000E+00  0.00000000E+00  0.00000000E+00
  0.00000000E+00  0.00000000E+00  0.00000000E+00
  0.00000000E+00  0.00000000E+00  0.00000000E+00
  0.00000000E+00  0.00000000E+00  0.00000000E+00
  0.00000000E+00  0.00000000E+00  0.00000000E+00
  0.00000000E+00  0.00000000E+00  0.00000000E+00
  0.00000000E+00  0.00000000E+00  0.00000000E+00
  0.00000000E+00  0.00000000E+00  0.00000000E+00
  0.00000000E+00  0.00000000E+00  0.00000000E+00
  0.00000000E+00  0.00000000E+00  0.00000000E+00
  0.00000000E+00  0.00000000E+00  0.00000000E+00
  0.00000000E+00  0.00000000E+00  0.00000000E+00
  0.00000000E+00  0.00000000E+00  0.00000000E+00
  0.00000000E+00  0.00000000E+00  0.00000000E+00
  0.00000000E+00  0.00000000E+00  0.00000000E+00
